proyfinal/src/viki/013/experimentInOfficeAgust.take6.output/20a45d2a-e5e8-48c4-9b7f-6e3048c56ab2.als.dat
{'cnf.clauses': '118081',
 'cnf.totvars': '69608',
 'conflict literals': '3210',
 'conflicts': '292',
 'decisions': '6955',
 'memused.mb': '18.41',
 'outcome': 'UNSAT',
 'propagations': '378291',
 'restarts': '3',
 'solver.msecs': 54,
 'task.msecs': 120}
