proyfinal/src/viki/013/experimentInOfficeAgust.take6.output/20a45d2a-e5e8-48c4-9b7f-6e3048c56ab2.als.out
Reading from standard input... Use '--help' for help.
============================[ Problem Statistics ]=============================
|                                                                             |
|  Number of variables:         69608                                         |
|  Number of clauses:          118081                                         |
|  Parse time:                   0.02 s                                       |
|                                                                             |
============================[ Search Statistics ]==============================
| Conflicts |          ORIGINAL         |          LEARNT          | Progress |
|           |    Vars  Clauses Literals |    Limit  Clauses Lit/Cl |          |
===============================================================================
|       100 |   59121    88794   219472 |    32557       95      9 | 15.066 % |
|       250 |   59093    87878   217377 |    35813      237     12 | 15.106 % |
===============================================================================
restarts              : 3
conflicts             : 292            (5378 /sec)
decisions             : 6955           (0.00 % random) (128097 /sec)
propagations          : 378291         (6967327 /sec)
conflict literals     : 3210           (28.57 % deleted)
Memory used           : 18.41 MB
CPU time              : 0.054295 s

UNSATISFIABLE
